! HF STO-3G OPT
%shark
Printlevel 2
end
* xyz 0 1
 C 0.0000 0.0000 0.0000
 H 0.0000 0.0000 1.0890
 H 1.0267 0.0000 -0.3630
 H -0.5134 -0.8892 -0.3630
 H -0.5134 0.8892 -0.3630
*
